Si
 1.0000000000000000
     5.2749830504103361    0.0000000000000000    0.0000000000000000
    -0.0000001146083347    5.2749830086031277    0.0000000000000000
     0.0000000460046461   -0.0000001399101661    5.2749829741563294
 Si 
   8
Direct
 -0.0000000212135913 -0.0000000057303250  0.0000000223141940
  0.2499999975270924  0.2500000034844082  0.2499999957579044
 -0.0000000172424984  0.5000000288669775  0.5000000129768144
  0.2500000291692377  0.7499999785641269  0.7499999885983353
  0.5000000029249396 -0.0000000201469822  0.4999999887226727
  0.7500000112688248  0.2500000131665619  0.7499999984622764
  0.5000000184604161  0.4999999920615712 -0.0000000206542197
  0.7499999816761483  0.7500000076729927  0.2500000123516440
