Si
 1.0000000000000000
     4.6897021047665612    0.0000000000000000    0.0000000000000000
     0.0000001541298474    4.6897020281929755    0.0000000000000000
    -0.0000000292333314    0.0000000042272391    5.0771097414484458
 Si 
   8
Direct
  0.0000000123161162 -0.0000000107328952  0.0000000179758343
  0.4999999971138179  0.5000000137101552  0.2500000100969596
 -0.0000000008077056  0.4999999803720323  0.1250000370205444
  0.4999999928437586  0.0000000022344767  0.3750000099431020
  0.0000000077397813  0.0000000045196169  0.4999999926240772
  0.4999999855711016  0.5000000000383679  0.7499999813575510
  0.0000000072523576  0.5000000061127102  0.6249999842519866
  0.4999999970162478  0.0000000047862478  0.8749999676033086
