Cl Na
 1.0000000000000000
     6.0514136733799200    0.0000000000000000    0.0000000000000000
    -0.0000000829001310    6.0514136663714977    0.0000000000000000
    -0.0000000034943276   -0.0000000012235260    3.0257068275989711
 Cl  Na 
   4   4
Direct
  0.2500000001592526  0.2500000008988543  0.5000000050869011
  0.2500000199406945  0.7499999809070759  0.4999999992585819
  0.7499999824493819  0.2499999828280491  0.4999999942855639
  0.7499999771758468  0.7500000086982380  0.4999999947487508
 -0.0000000036185145  0.0000000130386743  0.0000000049430685
 -0.0000000006296339  0.5000000017940398 -0.0000000002021182
  0.5000000139686015  0.0000000049543933  0.0000000058056541
  0.5000000056589824  0.5000000028111102  0.0000000058617202
