Cl Na
 1.0000000000000000
     4.9064682381261520    0.0000000000000000    0.0000000000000000
    -0.0000000236319684    4.9064682228110010    0.0000000000000000
    -0.0000000012926032   -0.0000000018353756    4.9064682227021148
 Cl  Na 
   4   4
Direct
  0.4999999980677669 -0.0000000049641456  0.0000000009033407
  0.4999999939528828  0.5000000169725265  0.4999999946548801
  0.0000000088925716 -0.0000000053035491  0.5000000006201989
 -0.0000000119763336  0.5000000115990662  0.0000000008122990
 -0.0000000007617956 -0.0000000079199558  0.0000000063284220
  0.0000000043330703  0.4999999957462328  0.4999999953270196
  0.4999999955816595 -0.0000000079169821  0.4999999923831016
  0.5000000091483920  0.5000000001311955  0.0000000113825177
